&GLOBAL
  PROJECT MgO_pbe0_energy
  RUN_TYPE energy
  EXTENDED_FFT_LENGTHS .true.
  PRINT_LEVEL medium
&END GLOBAL

&FORCE_EVAL
  METHOD QS

  &DFT
    BASIS_SET_FILE_NAME BASIS_MOLOPT
    BASIS_SET_FILE_NAME BASIS_MOLOPT_UCL
    BASIS_SET_FILE_NAME BASIS_ADMM
    POTENTIAL_FILE_NAME POTENTIAL
    WFN_RESTART_FILE_NAME MgO_pbe0_energy.wfn

    &MGRID
      CUTOFF     450
      REL_CUTOFF 60
    &END MGRID

    &QS
      METHOD gpw
      EPS_DEFAULT 1e-15
      EPS_PGF_ORB 1e-12
    &END QS

    &SCF
      MAX_SCF   1
      EPS_SCF   1e-7
      SCF_GUESS restart
    &END SCF

    &AUXILIARY_DENSITY_MATRIX_METHOD
      METHOD basis_projection
      ADMM_PURIFICATION_METHOD none
      EXCH_CORRECTION_FUNC pbex
    &END

    &POISSON
       PERIODIC xyz
    &END POISSON

    &XC
      &XC_FUNCTIONAL
        &PBE
          SCALE_X 0.75                 
          SCALE_C 1.0
        &END PBE
      &END XC_FUNCTIONAL

      &HF
        HFX_LIBRARY libint

        &SCREENING
          EPS_SCHWARZ 1.0E-10
          #SCREEN_ON_INITIAL_P Y
        &END

        &MEMORY
          MAX_MEMORY 1000
        &END

        &INTERACTION_POTENTIAL
          POTENTIAL_TYPE TRUNCATED
          CUTOFF_RADIUS 6.0
          T_C_G_DATA t_c_g.dat
        &END

        FRACTION 0.25
      &END HF
    &END XC
  &END DFT

  &SUBSYS
    &CELL
      A       12.6480000000        0.0000000000        0.0000000000
      B        0.0000000000       12.6480000000        0.0000000000
      C        0.0000000000        0.0000000000       12.6480000000
      PERIODIC xyz
    &END CELL

    &COORD
 Mg        0.0000000000        0.0000000000        0.0000000000
 O         2.1080000000        0.0000000000        0.0000000000
 O         0.0000000000        2.1080000000        0.0000000000
 Mg        2.1080000000        2.1080000000        0.0000000000
 O         0.0000000000        0.0000000000        2.1080000000
 Mg        2.1080000000        0.0000000000        2.1080000000
 Mg        0.0000000000        2.1080000000        2.1080000000
 O         2.1080000000        2.1080000000        2.1080000000
 Mg        4.2160000000        0.0000000000        0.0000000000
 O         6.3240000000        0.0000000000        0.0000000000
 O         4.2160000000        2.1080000000        0.0000000000
 Mg        6.3240000000        2.1080000000        0.0000000000
 O         4.2160000000        0.0000000000        2.1080000000
 Mg        6.3240000000        0.0000000000        2.1080000000
 Mg        4.2160000000        2.1080000000        2.1080000000
 O         6.3240000000        2.1080000000        2.1080000000
 Mg        8.4320000000        0.0000000000        0.0000000000
 O        10.5400000000        0.0000000000        0.0000000000
 O         8.4320000000        2.1080000000        0.0000000000
 Mg       10.5400000000        2.1080000000        0.0000000000
 O         8.4320000000        0.0000000000        2.1080000000
 Mg       10.5400000000        0.0000000000        2.1080000000
 Mg        8.4320000000        2.1080000000        2.1080000000
 O        10.5400000000        2.1080000000        2.1080000000
 Mg        0.0000000000        4.2160000000        0.0000000000
 O         2.1080000000        4.2160000000        0.0000000000
 O         0.0000000000        6.3240000000        0.0000000000
 Mg        2.1080000000        6.3240000000        0.0000000000
 O         0.0000000000        4.2160000000        2.1080000000
 Mg        2.1080000000        4.2160000000        2.1080000000
 Mg        0.0000000000        6.3240000000        2.1080000000
 O         2.1080000000        6.3240000000        2.1080000000
 Mg        4.2160000000        4.2160000000        0.0000000000
 O         6.3240000000        4.2160000000        0.0000000000
 O         4.2160000000        6.3240000000        0.0000000000
 Mg        6.3240000000        6.3240000000        0.0000000000
 O         4.2160000000        4.2160000000        2.1080000000
 Mg        6.3240000000        4.2160000000        2.1080000000
 Mg        4.2160000000        6.3240000000        2.1080000000
 O         6.3240000000        6.3240000000        2.1080000000
 Mg        8.4320000000        4.2160000000        0.0000000000
 O        10.5400000000        4.2160000000        0.0000000000
 O         8.4320000000        6.3240000000        0.0000000000
 Mg       10.5400000000        6.3240000000        0.0000000000
 O         8.4320000000        4.2160000000        2.1080000000
 Mg       10.5400000000        4.2160000000        2.1080000000
 Mg        8.4320000000        6.3240000000        2.1080000000
 O        10.5400000000        6.3240000000        2.1080000000
 Mg        0.0000000000        8.4320000000        0.0000000000
 O         2.1080000000        8.4320000000        0.0000000000
 O         0.0000000000       10.5400000000        0.0000000000
 Mg        2.1080000000       10.5400000000        0.0000000000
 O         0.0000000000        8.4320000000        2.1080000000
 Mg        2.1080000000        8.4320000000        2.1080000000
 Mg        0.0000000000       10.5400000000        2.1080000000
 O         2.1080000000       10.5400000000        2.1080000000
 Mg        4.2160000000        8.4320000000        0.0000000000
 O         6.3240000000        8.4320000000        0.0000000000
 O         4.2160000000       10.5400000000        0.0000000000
 Mg        6.3240000000       10.5400000000        0.0000000000
 O         4.2160000000        8.4320000000        2.1080000000
 Mg        6.3240000000        8.4320000000        2.1080000000
 Mg        4.2160000000       10.5400000000        2.1080000000
 O         6.3240000000       10.5400000000        2.1080000000
 Mg        8.4320000000        8.4320000000        0.0000000000
 O        10.5400000000        8.4320000000        0.0000000000
 O         8.4320000000       10.5400000000        0.0000000000
 Mg       10.5400000000       10.5400000000        0.0000000000
 O         8.4320000000        8.4320000000        2.1080000000
 Mg       10.5400000000        8.4320000000        2.1080000000
 Mg        8.4320000000       10.5400000000        2.1080000000
 O        10.5400000000       10.5400000000        2.1080000000
 Mg        0.0000000000        0.0000000000        4.2160000000
 O         2.1080000000        0.0000000000        4.2160000000
 O         0.0000000000        2.1080000000        4.2160000000
 Mg        2.1080000000        2.1080000000        4.2160000000
 O         0.0000000000        0.0000000000        6.3240000000
 Mg        2.1080000000        0.0000000000        6.3240000000
 Mg        0.0000000000        2.1080000000        6.3240000000
 O         2.1080000000        2.1080000000        6.3240000000
 Mg        4.2160000000        0.0000000000        4.2160000000
 O         6.3240000000        0.0000000000        4.2160000000
 O         4.2160000000        2.1080000000        4.2160000000
 Mg        6.3240000000        2.1080000000        4.2160000000
 O         4.2160000000        0.0000000000        6.3240000000
 Mg        6.3240000000        0.0000000000        6.3240000000
 Mg        4.2160000000        2.1080000000        6.3240000000
 O         6.3240000000        2.1080000000        6.3240000000
 Mg        8.4320000000        0.0000000000        4.2160000000
 O        10.5400000000        0.0000000000        4.2160000000
 O         8.4320000000        2.1080000000        4.2160000000
 Mg       10.5400000000        2.1080000000        4.2160000000
 O         8.4320000000        0.0000000000        6.3240000000
 Mg       10.5400000000        0.0000000000        6.3240000000
 Mg        8.4320000000        2.1080000000        6.3240000000
 O        10.5400000000        2.1080000000        6.3240000000
 Mg        0.0000000000        4.2160000000        4.2160000000
 O         2.1080000000        4.2160000000        4.2160000000
 O         0.0000000000        6.3240000000        4.2160000000
 Mg        2.1080000000        6.3240000000        4.2160000000
 O         0.0000000000        4.2160000000        6.3240000000
 Mg        2.1080000000        4.2160000000        6.3240000000
 Mg        0.0000000000        6.3240000000        6.3240000000
 O         2.1080000000        6.3240000000        6.3240000000
 Mg        4.2160000000        4.2160000000        4.2160000000
 O         6.3240000000        4.2160000000        4.2160000000
 O         4.2160000000        6.3240000000        4.2160000000
 Mg        6.3240000000        6.3240000000        4.2160000000
 O         4.2160000000        4.2160000000        6.3240000000
 Mg        6.3240000000        4.2160000000        6.3240000000
 Mg        4.2160000000        6.3240000000        6.3240000000
 O         6.3240000000        6.3240000000        6.3240000000
 Mg        8.4320000000        4.2160000000        4.2160000000
 O        10.5400000000        4.2160000000        4.2160000000
 O         8.4320000000        6.3240000000        4.2160000000
 Mg       10.5400000000        6.3240000000        4.2160000000
 O         8.4320000000        4.2160000000        6.3240000000
 Mg       10.5400000000        4.2160000000        6.3240000000
 Mg        8.4320000000        6.3240000000        6.3240000000
 O        10.5400000000        6.3240000000        6.3240000000
 Mg        0.0000000000        8.4320000000        4.2160000000
 O         2.1080000000        8.4320000000        4.2160000000
 O         0.0000000000       10.5400000000        4.2160000000
 Mg        2.1080000000       10.5400000000        4.2160000000
 O         0.0000000000        8.4320000000        6.3240000000
 Mg        2.1080000000        8.4320000000        6.3240000000
 Mg        0.0000000000       10.5400000000        6.3240000000
 O         2.1080000000       10.5400000000        6.3240000000
 Mg        4.2160000000        8.4320000000        4.2160000000
 O         6.3240000000        8.4320000000        4.2160000000
 O         4.2160000000       10.5400000000        4.2160000000
 Mg        6.3240000000       10.5400000000        4.2160000000
 O         4.2160000000        8.4320000000        6.3240000000
 Mg        6.3240000000        8.4320000000        6.3240000000
 Mg        4.2160000000       10.5400000000        6.3240000000
 O         6.3240000000       10.5400000000        6.3240000000
 Mg        8.4320000000        8.4320000000        4.2160000000
 O        10.5400000000        8.4320000000        4.2160000000
 O         8.4320000000       10.5400000000        4.2160000000
 Mg       10.5400000000       10.5400000000        4.2160000000
 O         8.4320000000        8.4320000000        6.3240000000
 Mg       10.5400000000        8.4320000000        6.3240000000
 Mg        8.4320000000       10.5400000000        6.3240000000
 O        10.5400000000       10.5400000000        6.3240000000
 Mg        0.0000000000        0.0000000000        8.4320000000
 O         2.1080000000        0.0000000000        8.4320000000
 O         0.0000000000        2.1080000000        8.4320000000
 Mg        2.1080000000        2.1080000000        8.4320000000
 O         0.0000000000        0.0000000000       10.5400000000
 Mg        2.1080000000        0.0000000000       10.5400000000
 Mg        0.0000000000        2.1080000000       10.5400000000
 O         2.1080000000        2.1080000000       10.5400000000
 Mg        4.2160000000        0.0000000000        8.4320000000
 O         6.3240000000        0.0000000000        8.4320000000
 O         4.2160000000        2.1080000000        8.4320000000
 Mg        6.3240000000        2.1080000000        8.4320000000
 O         4.2160000000        0.0000000000       10.5400000000
 Mg        6.3240000000        0.0000000000       10.5400000000
 Mg        4.2160000000        2.1080000000       10.5400000000
 O         6.3240000000        2.1080000000       10.5400000000
 Mg        8.4320000000        0.0000000000        8.4320000000
 O        10.5400000000        0.0000000000        8.4320000000
 O         8.4320000000        2.1080000000        8.4320000000
 Mg       10.5400000000        2.1080000000        8.4320000000
 O         8.4320000000        0.0000000000       10.5400000000
 Mg       10.5400000000        0.0000000000       10.5400000000
 Mg        8.4320000000        2.1080000000       10.5400000000
 O        10.5400000000        2.1080000000       10.5400000000
 Mg        0.0000000000        4.2160000000        8.4320000000
 O         2.1080000000        4.2160000000        8.4320000000
 O         0.0000000000        6.3240000000        8.4320000000
 Mg        2.1080000000        6.3240000000        8.4320000000
 O         0.0000000000        4.2160000000       10.5400000000
 Mg        2.1080000000        4.2160000000       10.5400000000
 Mg        0.0000000000        6.3240000000       10.5400000000
 O         2.1080000000        6.3240000000       10.5400000000
 Mg        4.2160000000        4.2160000000        8.4320000000
 O         6.3240000000        4.2160000000        8.4320000000
 O         4.2160000000        6.3240000000        8.4320000000
 Mg        6.3240000000        6.3240000000        8.4320000000
 O         4.2160000000        4.2160000000       10.5400000000
 Mg        6.3240000000        4.2160000000       10.5400000000
 Mg        4.2160000000        6.3240000000       10.5400000000
 O         6.3240000000        6.3240000000       10.5400000000
 Mg        8.4320000000        4.2160000000        8.4320000000
 O        10.5400000000        4.2160000000        8.4320000000
 O         8.4320000000        6.3240000000        8.4320000000
 Mg       10.5400000000        6.3240000000        8.4320000000
 O         8.4320000000        4.2160000000       10.5400000000
 Mg       10.5400000000        4.2160000000       10.5400000000
 Mg        8.4320000000        6.3240000000       10.5400000000
 O        10.5400000000        6.3240000000       10.5400000000
 Mg        0.0000000000        8.4320000000        8.4320000000
 O         2.1080000000        8.4320000000        8.4320000000
 O         0.0000000000       10.5400000000        8.4320000000
 Mg        2.1080000000       10.5400000000        8.4320000000
 O         0.0000000000        8.4320000000       10.5400000000
 Mg        2.1080000000        8.4320000000       10.5400000000
 Mg        0.0000000000       10.5400000000       10.5400000000
 O         2.1080000000       10.5400000000       10.5400000000
 Mg        4.2160000000        8.4320000000        8.4320000000
 O         6.3240000000        8.4320000000        8.4320000000
 O         4.2160000000       10.5400000000        8.4320000000
 Mg        6.3240000000       10.5400000000        8.4320000000
 O         4.2160000000        8.4320000000       10.5400000000
 Mg        6.3240000000        8.4320000000       10.5400000000
 Mg        4.2160000000       10.5400000000       10.5400000000
 O         6.3240000000       10.5400000000       10.5400000000
 Mg        8.4320000000        8.4320000000        8.4320000000
 O        10.5400000000        8.4320000000        8.4320000000
 O         8.4320000000       10.5400000000        8.4320000000
 Mg       10.5400000000       10.5400000000        8.4320000000
 O         8.4320000000        8.4320000000       10.5400000000
 Mg       10.5400000000        8.4320000000       10.5400000000
 Mg        8.4320000000       10.5400000000       10.5400000000
 O        10.5400000000       10.5400000000       10.5400000000
    &END COORD

    &KIND  Mg
      BASIS_SET DZVP-MOLOPT-SR-GTH-q2
      BASIS_SET AUX_FIT cpFIT3
      POTENTIAL GTH-PBE-q2
    &END

    &KIND  O
      BASIS_SET DZVP-MOLOPT-GTH-q6
      BASIS_SET AUX_FIT cpFIT3
      POTENTIAL GTH-PBE-q6
    &END
  &END SUBSYS
&END FORCE_EVAL

