&GLOBAL
  PROJECT MgO_pbe0_energy
  RUN_TYPE energy
  EXTENDED_FFT_LENGTHS .true.
  PRINT_LEVEL medium
&END GLOBAL

&FORCE_EVAL
  METHOD QS

  &DFT
    BASIS_SET_FILE_NAME ./basis.inp
    POTENTIAL_FILE_NAME POTENTIAL
    &MGRID
      CUTOFF     450
      REL_CUTOFF 60
    &END MGRID

    &QS
      METHOD gpw
      EPS_DEFAULT 1e-15
      EPS_PGF_ORB 1e-12
    &END QS

    &SCF
      MAX_SCF   1
      EPS_SCF   1e-7
      SCF_GUESS restart
    &END SCF

    &POISSON
       PERIODIC xyz
    &END POISSON

    &XC
      &XC_FUNCTIONAL
        &PBE
          SCALE_X 0.75                 
          SCALE_C 1.0
        &END PBE
      &END XC_FUNCTIONAL

      &HF
        HFX_LIBRARY libint

        &SCREENING
          EPS_SCHWARZ 1.0E-10
          #SCREEN_ON_INITIAL_P Y
        &END

        &MEMORY
          MAX_MEMORY 1000
        &END

        &INTERACTION_POTENTIAL
          POTENTIAL_TYPE TRUNCATED
          CUTOFF_RADIUS 4.0
          T_C_G_DATA t_c_g.dat
        &END

        FRACTION 0.25
      &END HF
    &END XC
  &END DFT

  &SUBSYS
    &CELL
      A        8.4320000000        0.0000000000        0.0000000000
      B        0.0000000000        8.4320000000        0.0000000000
      C        0.0000000000        0.0000000000        8.4132000000
      PERIODIC xyz
    &END CELL

    &COORD
Mg 0.0 0.0 0.0
O 2.108 0.0 0.0
O 0.0 2.108 0.0
Mg 2.108 2.108 0.0
O 0.0 0.0 2.108
Mg 2.108 0.0 2.108
Mg 0.0 2.108 2.108
O 2.108 2.108 2.108
Mg 0.0 0.0 4.216
O 2.108 0.0 4.216
O 0.0 2.108 4.216
Mg 2.108 2.108 4.216
O 0.0 0.0 6.324
Mg 2.108 0.0 6.324
Mg 0.0 2.108 6.324
O 2.108 2.108 6.324
Mg 0.0 4.216 0.0
O 2.108 4.216 0.0
O 0.0 6.324 0.0
Mg 2.108 6.324 0.0
O 0.0 4.216 2.108
Mg 2.108 4.216 2.108
Mg 0.0 6.324 2.108
O 2.108 6.324 2.108
Mg 0.0 4.216 4.216
O 2.108 4.216 4.216
O 0.0 6.324 4.216
Mg 2.108 6.324 4.216
O 0.0 4.216 6.324
Mg 2.108 4.216 6.324
Mg 0.0 6.324 6.324
O 2.108 6.324 6.324
Mg 4.216 0.0 0.0
O 6.324 0.0 0.0
O 4.216 2.108 0.0
Mg 6.324 2.108 0.0
O 4.216 0.0 2.108
Mg 6.324 0.0 2.108
Mg 4.216 2.108 2.108
O 6.324 2.108 2.108
Mg 4.216 0.0 4.216
O 6.324 0.0 4.216
O 4.216 2.108 4.216
Mg 6.324 2.108 4.216
O 4.216 0.0 6.324
Mg 6.324 0.0 6.324
Mg 4.216 2.108 6.324
O 6.324 2.108 6.324
Mg 4.216 4.216 0.0
O 6.324 4.216 0.0
O 4.216 6.324 0.0
Mg 6.324 6.324 0.0
O 4.216 4.216 2.108
Mg 6.324 4.216 2.108
Mg 4.216 6.324 2.108
O 6.324 6.324 2.108
Mg 4.216 4.216 4.216
O 6.324 4.216 4.216
O 4.216 6.324 4.216
Mg 6.324 6.324 4.216
O 4.216 4.216 6.324
Mg 6.324 4.216 6.324
Mg 4.216 6.324 6.324
O 6.324 6.324 6.324
    &END COORD

    &KIND  Mg
      BASIS_SET Mg_1
      POTENTIAL GTH-PBE-q2
    &END

    &KIND  O
      BASIS_SET O_1
      POTENTIAL GTH-PBE-q6
    &END
  &END SUBSYS
&END FORCE_EVAL

