# Cell
#**************************************************************************************************************
#*                                Generated by cif2cell 2.0.0 2024-10-24 15:14                                *
#*               T. Bjorkman, Comp. Phys. Commun. 182, 1183-1186 (2011). Please cite generously.              *
#*                                                                                                            *
#*                             Data obtained from ICSD. Reference number : 37254                              *
#*                                                K Mn F3   ()                                                *
#* Failed to get author information, Acta Crystallographica, Section B: Structural Science 39, 557-561 (1983) *
#**************************************************************************************************************


&GLOBAL
  EPS_CHECK_DIAG 1.0E-12
  PRINT_LEVEL MEDIUM
  PROJECT H2O-32
  RUN_TYPE ENERGY
&END GLOBAL

&MOTION
  &MD
    ENSEMBLE NVE
    STEPS 0
    TEMPERATURE 300.0
    TIMESTEP 0.5
  &END MD
&END MOTION

&FORCE_EVAL
  METHOD QS
  &DFT
    LSD 
    BASIS_SET_FILE_NAME ../../../data/../benchmarks/HFX_LIBGINT/KMnF3/basis.inp
    POTENTIAL_FILE_NAME POTENTIAL_UZH
    &MGRID
      CUTOFF 20
      REL_CUTOFF 30
    &END MGRID
    &QS
      EPS_DEFAULT 1.0E-12
      EXTRAPOLATION_ORDER 3
      WF_INTERPOLATION PS
    &END QS
    &SCF
      MAX_SCF 4
      IGNORE_CONVERGENCE_FAILURE
      SCF_GUESS ATOMIC
      &OT ON
        MINIMIZER DIIS
      &END OT
      # SCF_GUESS        RESTART
      # EPS_SCF      1.0E-7
      &PRINT
        &RESTART OFF
        &END RESTART
      &END PRINT
    &END SCF
    &XC
      &HF
        HFX_LIBRARY both #libint
        &INTERACTION_POTENTIAL
          CUTOFF_RADIUS 2
          POTENTIAL_TYPE TRUNCATED
          T_C_G_DATA ./t_c_g.dat
        &END INTERACTION_POTENTIAL
        &MEMORY
          EPS_STORAGE_SCALING 0.1
          MAX_MEMORY 1000
        &END MEMORY
        &SCREENING
          EPS_SCHWARZ 1.0E-9
        &END SCREENING
      &END HF
      &XC_FUNCTIONAL NONE
      &END XC_FUNCTIONAL
    &END XC
  &END DFT
  &SUBSYS
    &CELL
      PERIODIC XYZ
      A   14.188900000000000   0.000000000000000   0.000000000000000
      B   0.000000000000000   14.188900000000000   0.000000000000000
      C   0.000000000000000   0.000000000000000   14.188900000000000
    &END CELL
    &COORD
      Mn  0.000000000000000   0.000000000000000   0.000000000000000
      K   2.094450000000000   2.094450000000000   2.094450000000000
      F   2.094450000000000   0.000000000000000   0.000000000000000
      F   0.000000000000000   2.094450000000000   0.000000000000000
      F   0.000000000000000   0.000000000000000   2.094450000000000
    &END COORD
    &KIND Mn
      BASIS_SET ORB Mn_MOD
      POTENTIAL GTH-PBE0-q15
    &END KIND
    &KIND K
      BASIS_SET ORB K_MOD
      POTENTIAL GTH-PBE0-q9
    &END KIND
    &KIND F
      BASIS_SET ORB F_MOD
      POTENTIAL GTH-PBE0-q7
    &END KIND
  &END SUBSYS
&END FORCE_EVAL
