# Cell
#**************************************************************************************************************
#*                                Generated by cif2cell 2.0.0 2024-10-24 15:14                                *
#*               T. Bjorkman, Comp. Phys. Commun. 182, 1183-1186 (2011). Please cite generously.              *
#*                                                                                                            *
#*                             Data obtained from ICSD. Reference number : 37254                              *
#*                                                K Mn F3   ()                                                *
#* Failed to get author information, Acta Crystallographica, Section B: Structural Science 39, 557-561 (1983) *
#**************************************************************************************************************


&GLOBAL
  EPS_CHECK_DIAG 1.0E-12
  PRINT_LEVEL MEDIUM
  PROJECT KMnF3
  RUN_TYPE ENERGY
&END GLOBAL

&FORCE_EVAL
  METHOD QS
  &DFT
    LSD 
!    BASIS_SET_FILE_NAME basis.inp
    BASIS_SET_FILE_NAME BASIS_MOLOPT_UZH
    POTENTIAL_FILE_NAME POTENTIAL_UZH
    &MGRID
      CUTOFF 400
      REL_CUTOFF 400
    &END MGRID
    &QS
      EPS_DEFAULT 1.0E-6
      EXTRAPOLATION_ORDER 3
      WF_INTERPOLATION PS
      MIN_PAIR_LIST_RADIUS -1
    &END QS
    &SCF
      MAX_SCF 240
      SCF_GUESS ATOMIC
!      &DIAGONALIZATION T
!        ALGORITHM LANCZOS
!        &KRYLOV 
!        &END
!      &END
      &MIXING
        ALPHA 0.2
        METHOD BROYDEN_MIXING
        NBROYDEN 8
      &END MIXING
     &PRINT
        &RESTART OFF
        &END RESTART
      &END PRINT
    &END SCF
    &XC
!      &HF
!        HFX_LIBRARY libint
!        &INTERACTION_POTENTIAL
!          CUTOFF_RADIUS 2
!          POTENTIAL_TYPE TRUNCATED
!          T_C_G_DATA ./t_c_g.dat
!        &END INTERACTION_POTENTIAL
!        &MEMORY
!          EPS_STORAGE_SCALING 0.1
!          MAX_MEMORY 6000
!        &END MEMORY
!        &SCREENING
!          EPS_SCHWARZ 1.0E-6
!        &END SCREENING
!      &END HF
      &XC_FUNCTIONAL PBE
      &END XC_FUNCTIONAL
    &END XC
  &END DFT
  &SUBSYS
&CELL
  PERIODIC XYZ
!  A   8.377800000000001   0.000000000000000   0.000000000000000
!  B   0.000000000000000   8.377800000000001   0.000000000000000
!  C   0.000000000000000   0.000000000000000   8.377800000000001
   ABC 4.18890000 4.18890000 4.18890000
&END CELL

&COORD
Mn  0.000000000000000   0.000000000000000   0.000000000000000
!Mn  4.188900000000000   4.188900000000000   0.000000000000000
!Mn  4.188900000000000   0.000000000000000   0.000000000000000
!Mn  0.000000000000000   4.188900000000000   4.188900000000000
!Mn  0.000000000000000   0.000000000000000   4.188900000000000
!Mn  4.188900000000000   4.188900000000000   4.188900000000000
!Mn  4.188900000000000   0.000000000000000   4.188900000000000
!Mn  0.000000000000000   4.188900000000000   0.000000000000000
K  2.094450000000000   2.094450000000000   2.094450000000000
!K  6.283350000000000   6.283350000000000   2.094450000000000
!K  6.283350000000000   2.094450000000000   2.094450000000000
!K  2.094450000000000   6.283350000000000   6.283350000000000
!K  2.094450000000000   2.094450000000000   6.283350000000000
!K  6.283350000000000   6.283350000000000   6.283350000000000
!K  6.283350000000000   2.094450000000000   6.283350000000000
!K  2.094450000000000   6.283350000000000   2.094450000000000
F  2.094450000000000   0.000000000000000   0.000000000000000
F  0.000000000000000   2.094450000000000   0.000000000000000
F  0.000000000000000   0.000000000000000   2.094450000000000
!F  6.283350000000000   4.188900000000000   0.000000000000000
!F  6.283350000000000   0.000000000000000   0.000000000000000
!F  2.094450000000000   4.188900000000000   4.188900000000000
!F  2.094450000000000   0.000000000000000   4.188900000000000
!F  6.283350000000000   4.188900000000000   4.188900000000000
!F  6.283350000000000   0.000000000000000   4.188900000000000
!F  2.094450000000000   4.188900000000000   0.000000000000000
!F  4.188900000000000   6.283350000000000   0.000000000000000
!F  4.188900000000000   2.094450000000000   0.000000000000000
!F  0.000000000000000   6.283350000000000   4.188900000000000
!F  0.000000000000000   2.094450000000000   4.188900000000000
!F  4.188900000000000   6.283350000000000   4.188900000000000
!F  4.188900000000000   2.094450000000000   4.188900000000000
!F  0.000000000000000   6.283350000000000   0.000000000000000
!F  4.188900000000000   4.188900000000000   2.094450000000000
!F  4.188900000000000   0.000000000000000   2.094450000000000
!F  0.000000000000000   4.188900000000000   6.283350000000000
!F  0.000000000000000   0.000000000000000   6.283350000000000
!F  4.188900000000000   4.188900000000000   6.283350000000000
!F  4.188900000000000   0.000000000000000   6.283350000000000
!F  0.000000000000000   4.188900000000000   2.094450000000000
&END COORD

&KIND Mn
  BASIS_SET ORB DZVP-MOLOPT-PBE-GTH-q15
  POTENTIAL GTH-PBE-q15
&END KIND
&KIND K
  BASIS_SET ORB DZVP-MOLOPT-PBE-GTH-q9
  POTENTIAL GTH-PBE-q9
&END KIND
&KIND F
  BASIS_SET ORB DZVP-MOLOPT-PBE-GTH-q7
  POTENTIAL GTH-PBE-q7
&END KIND

!    &KIND Mn
!      BASIS_SET ORB Mn_MOD
!      POTENTIAL GTH-PBE0-q15
!    &END KIND
!    &KIND K
!      BASIS_SET ORB K_MOD
!      POTENTIAL GTH-PBE0-q9
!    &END KIND
!    &KIND F
!      BASIS_SET ORB F_MOD
!      POTENTIAL GTH-PBE0-q7
!    &END KIND
  &END SUBSYS
&END FORCE_EVAL
